\ File written by Highs .lp filereader
minimize
 obj: +1 x1 +12 x2 +18 x3 +12 x4 +1 x5 +1 x6 +3 x7 +12 x8 +18 x9 +4 x10 +4 x11 +1 x12 +18 x13 +12 x14 +12 x15 +18 x16 +3 x17 +12 x18 +4 x19 +1 x20 +18 x21 +12 x22 +4 x23 +6 x24 +6 x25 +4 x26 +12 x27 +18 x28 +1 x29 +4 x30 +0 x31 +0 x32 +0 x33 +0 x34 +0 x35 +0 x36 +0 x37 
st
 con1: +3 x1 +24 x2 +36 x3 +12 x4 +6 x7 +24 x8 +18 x9 +12 x19 +3 x20 +18 x21 +12 x22 = +3
 con2: +12 x2 +36 x3 +36 x4 +4 x5 +12 x8 +36 x9 +12 x10 +4 x19 +36 x21 +12 x22 +12 x23 +12 x24 = +4
 con3: +18 x3 +36 x4 +6 x5 +6 x6 +18 x9 +12 x10 +18 x13 +36 x15 +18 x16 +18 x17 +36 x18 +18 x21 +12 x23 +6 x24 +6 x25 +36 x27 +18 x28 +6 x29 +12 x30 = +6
 con4: +3 x7 +12 x8 +18 x9 +4 x10 +1 x20 +12 x22 +6 x24 = +1
 con5: +3 x1 +12 x2 +18 x3 +3 x7 +12 x8 +12 x11 +3 x12 +18 x13 +12 x14 +12 x15 +18 x16 +12 x19 +3 x20 +18 x25 +12 x26 = +3
 con6: +24 x2 +72 x3 +36 x4 +24 x8 +36 x9 +12 x11 +72 x13 +24 x14 +72 x15 +72 x16 +12 x17 +36 x18 +12 x19 +36 x21 +12 x22 +36 x25 +12 x26 +36 x27 +36 x28 = +12
 con7: +6 x7 +24 x8 +18 x9 +3 x12 +24 x14 +36 x16 +12 x18 +3 x20 +12 x22 +12 x26 +18 x28 = +3
 con8: +4 x6 +12 x8 +36 x9 +12 x10 +12 x14 +36 x16 +36 x18 +12 x22 +12 x24 +4 x26 +36 x28 +12 x30 = +4
 con9: +1 x1 +12 x2 +3 x7 +18 x21 +12 x22 +4 x23 +6 x24 = +1
 con10: +3 x1 +24 x2 +6 x7 +12 x11 +3 x12 +36 x13 +24 x14 +18 x21 +12 x22 +12 x27 +18 x28 = +3
 con11: +12 x2 +4 x11 +36 x13 +12 x14 +36 x21 +12 x22 +12 x23 +12 x24 +36 x27 +36 x28 +4 x29 +12 x30 = +4
 con12: +3 x7 +1 x12 +12 x14 +12 x22 +6 x24 +18 x28 +4 x30 = +1
 con13: +1 x3 -1 x21 -1 x31 = +0
 con14: +1 x4 -1 x23 -1 x32 = +0
 con15: +1 x8 -1 x22 -1 x33 = +0
 con16: +1 x9 -1 x24 -1 x34 = +0
 con17: +1 x13 -1 x25 -1 x35 = +0
 con18: +1 x15 -1 x27 -1 x36 = +0
 con19: +1 x16 -1 x28 -1 x37 = +0
bounds
 +0 <= x1 <= +1
 +0 <= x2 <= +0
 +0 <= x3 <= +1
 +0 <= x4 <= +1
 +0 <= x5 <= +0
 +0 <= x6 <= +0
 +0 <= x7 <= +0
 +0 <= x8 <= +1
 +0 <= x9 <= +1
 +0 <= x10 <= +0
 +0 <= x11 <= +0
 +0 <= x12 <= +0
 +0 <= x13 <= +1
 +0 <= x14 <= +0
 +0 <= x15 <= +1
 +0 <= x16 <= +1
 +0 <= x17 <= +0
 +0 <= x18 <= +0
 +0 <= x19 <= +0
 +0 <= x20 <= +0
 +0 <= x21 <= +1
 +0 <= x22 <= +1
 +0 <= x23 <= +1
 +0 <= x24 <= +1
 +0 <= x25 <= +1
 +0 <= x26 <= +0
 +0 <= x27 <= +1
 +0 <= x28 <= +1
 +0 <= x29 <= +0
 +0 <= x30 <= +0
 +0 <= x31 <= +0
 +0 <= x32 <= +0
 +0 <= x33 <= +0
 +0 <= x34 <= +0
 +0 <= x35 <= +0
 +0 <= x36 <= +0
 +0 <= x37 <= +0
binary
general
semi
end
